Traveling Salesman Problem/TSP_generados/Aleatorio1621103377_12.tsp
NAME: Aleatorio1621103377_12.tsp
COMMENT: Randomly generated scenario
TYPE: TSP
DIMENSION: 12
EDGE_WEIGHT_TYPE: ATT
NODE_COORD_SECTION
1 15.2 11.74
2 48.94 16.54
3 47.08 0.33
4 44.83 41.52
5 24.16 36.24
6 1.97 28.63
7 11.45 2.18
8 12.47 12.36
9 10.18 18.21
10 28.87 21.17
11 44.82 19.54
12 39.49 6.3
