Traveling Salesman Problem/TSP_generados/Aleatorio1621103377_12.opt.tour
NAME: Aleatorio1621103377_12.opt.tour
COMMENT: Optimal solution for Aleatorio1621103377_12 (172.7699582079454)
TYPE: TOUR
DIMENSION: 12
TOUR_SECTION
1 7 8 9 6 5 4 11 2 3 12 10
-1
EOF
